benchmarks/VRPTW/TSPTW/solution/n20w140.001.txt.solution
1 6 14 18 7 12 9 5 8 13 2 20 15 21 4 11 17 19 16 10 3 
176
